Route #1: 1 18 73 59 39 70 68 44 22 53 1
Route #2: 1 2 25 57 48 28 64 50 66 31 1
Route #3: 1 3 6 76 38 71 30 32 1
Route #4: 1 9 23 72 8 33 74 4 55 21 11 17 1
Route #5: 1 58 77 46 47 35 52 1
Route #6: 1 78 24 45 27 12 65 41 54 26 1
Route #7: 1 43 69 19 61 7 15 42 37 29 20 10 62 1
Route #8: 1 63 40 75 49 14 56 67 1
Route #9: 1 5 60 36 34 51 1
Route #10: 1 13 16 1
cost 1450
